Cu 
 1.0000000000000000
     2.5455844122715710    0.0000000000000000    0.0000000000000000
     0.0000000000000000    2.5455844122715710    0.0000000000000000
     0.0000000000000000    0.0000000000000000    3.6000000000000001
 Cu 
   2
Cartesian
  0.0000000000000000  0.0000000000000000  0.0000000000000000
  1.2727922100000000  1.2727922100000000  1.8000000000000000
